
Gurobi 9.1.2 (win64, Java) logging started Sat Nov  6 06:58:49 2021

Academic license - for non-commercial use only - expires 2022-10-30
Gurobi Optimizer version 9.1.2 build v9.1.2rc0 (win64)
Thread count: 6 physical cores, 12 logical processors, using up to 12 threads
Optimize a model with 40 rows, 400 columns and 800 nonzeros
Model fingerprint: 0x70b340ed
Variable types: 0 continuous, 400 integer (400 binary)
Coefficient statistics:
  Matrix range     [1e+00, 1e+03]
  Objective range  [4e+01, 9e+02]
  Bounds range     [1e+00, 1e+00]
  RHS range        [1e+00, 4e+02]
Found heuristic solution: objective 2439.0000000
Presolve removed 17 rows and 307 columns
Presolve time: 0.02s
Presolved: 23 rows, 93 columns, 186 nonzeros
Variable types: 0 continuous, 93 integer (93 binary)
Presolved: 23 rows, 93 columns, 186 nonzeros


Root relaxation: cutoff, 8 iterations, 0.00 seconds

    Nodes    |    Current Node    |     Objective Bounds      |     Work
 Expl Unexpl |  Obj  Depth IntInf | Incumbent    BestBd   Gap | It/Node Time

     0     0     cutoff    0      2439.00000 2439.00000  0.00%     -    0s

Explored 0 nodes (8 simplex iterations) in 0.03 seconds
Thread count was 12 (of 12 available processors)

Solution count 1: 2439 

Optimal solution found (tolerance 1.00e-04)
Best objective 2.439000000000e+03, best bound 2.439000000000e+03, gap 0.0000%
